
  17    4
   1   1   1   1

   0   0   0   0   0   8 2 3 4 5 6 8 15 16 
   9   1   0   1   1   5   14   12   11   10   9
   3   0   1   0   0   4   13   12   9   7
   10   0   0   0   1   3   10   9   7
   8   0   1   0   0   3   12   10   9
   7   0   0   1   1   2   13   10
   5   0   1   1   1   1   11
   8   1   0   1   0   1   9
   1   0   1   0   0   1   17
   8   1   1   1   0   1   17
   8   0   0   1   1   1   17
   2   0   1   1   1   1   17
   3   0   0   1   1   1   17
   3   0   1   1   0   1   17
   3   1   0   1   0   1   17
   10   1   1   0   0   1   17
   0   0   0   0   0   0 
